(set-info :origin "SVCOMP13 benchmarks generated by Arie Gurfinkel")
(set-info :status unsat)
(set-logic HORN)
(declare-fun cp-rel-entry () Bool)
(declare-fun cp-rel-bb2.i.i26.i.i () Bool)
(declare-fun cp-rel-bb1.i.i (Real Real Real Real) Bool)
(assert |cp-rel-entry|)
(assert (forall ((?A Real) (?B Real) (?C Real) (?D Real) (?E Bool) )(let (($x41763 (and |cp-rel-entry| (<= ?D 1.0) (>= ?C 0.0) (<= ?C 0.0) (>= ?B 0.0) (<= ?B 0.0) (>= ?A 1.0) (<= ?A 1.0) (= ?E true) (>= ?D 1.0))))
(=> $x41763 (|cp-rel-bb1.i.i| ?A ?B ?C ?D))))
)
(assert (forall ((?A Real) (?B Real) (?C Real) (?D Real) (?E Real) (?F Real) (?G Real) (?H Real) (?I Bool) (?J Bool) (?K Bool) (?L Bool) (?M Bool) (?N Bool) (?O Real) (?P Real) (?Q Bool) (?R Bool) (?S Bool) (?T Bool) (?U Bool) (?V Bool) (?W Real) (?X Real) (?Y Bool) (?Z Bool) (?A1 Bool) (?B1 Bool) (?C1 Bool) (?D1 Bool) (?E1 Bool) (?F1 Real) (?G1 Bool) (?H1 Bool) (?I1 Bool) (?J1 Bool) (?K1 Bool) (?L1 Bool) (?M1 Real) (?N1 Real) (?O1 Bool) (?P1 Bool) (?Q1 Bool) (?R1 Bool) (?S1 Bool) (?T1 Bool) (?U1 Bool) (?V1 Bool) (?W1 Bool) (?X1 Bool) (?Y1 Bool) (?Z1 Bool) (?A2 Bool) (?B2 Real) (?C2 Real) (?D2 Real) (?E2 Real) (?F2 Bool) (?G2 Bool) (?H2 Bool) (?I2 Bool) (?J2 Bool) (?K2 Real) (?L2 Bool) (?M2 Real) (?N2 Real) (?O2 Bool) (?P2 Real) (?Q2 Real) (?R2 Bool) (?S2 Real) (?T2 Bool) (?U2 Bool) (?V2 Bool) (?W2 Bool) (?X2 Bool) )(let (($x454028 (|cp-rel-bb1.i.i| ?E ?F ?G ?H)))
(let (($x870895 (= ?J2 (and ?X2 ?W2))))
(let (($x412307 (or (not ?I) (and ?J ?K (not ?L)))))
(let (($x104903 (or (not ?I) ?K)))
(let (($x311655 (not ?M)))
(let (($x318008 (or $x311655 (and ?I ?N (<= ?O ?P) (>= ?O ?P)) (and ?J ?Q ?L (<= ?O ?D) (>= ?O ?D)))))
(let (($x546775 (or $x311655 (and ?N (not ?Q)) (and ?Q (not ?N)))))
(let (($x568670 (or (not ?R) (and ?M ?S (not ?T)))))
(let (($x154137 (or (not ?R) ?S)))
(let (($x266353 (not ?U)))
(let (($x306100 (or $x266353 (and ?R ?V (<= ?W ?X) (>= ?W ?X)) (and ?M ?Y ?T (<= ?W ?C) (>= ?W ?C)))))
(let (($x195405 (or $x266353 (and ?V (not ?Y)) (and ?Y (not ?V)))))
(let (($x387165 (or (not ?Z) (and ?U ?A1 ?B1))))
(let (($x361669 (or (not ?Z) ?A1)))
(let (($x536206 (not ?C1)))
(let (($x363903 (or $x536206 (and ?Z ?D1 ?E1 (<= ?F1 ?A) (>= ?F1 ?A)) (and ?U ?G1 (not ?B1) (<= ?F1 1.0) (>= ?F1 1.0)))))
(let (($x206566 (or $x536206 (and ?D1 (not ?G1)) (and ?G1 (not ?D1)))))
(let (($x113697 (or (not ?H1) (and ?C1 ?I1 (not ?J1)))))
(let (($x445176 (or (not ?H1) ?I1)))
(let (($x231094 (or (not ?K1) (and ?H1 ?L1 (<= ?M1 ?N1) (>= ?M1 ?N1)) (and ?C1 ?O1 ?J1 (<= ?M1 ?O) (>= ?M1 ?O)))))
(let (($x466036 (or (not ?K1) (and ?L1 (not ?O1)) (and ?O1 (not ?L1)))))
(let (($x246929 (or (not ?P1) (and ?K1 ?Q1 (not ?R1)))))
(let (($x251790 (or (not ?P1) ?Q1)))
(let (($x820023 (or (not ?S1) (and ?P1 ?T1 ?J1))))
(let (($x842821 (or (not ?S1) ?T1)))
(let (($x595798 (or (not ?U1) (and ?P1 ?V1 (not ?J1)))))
(let (($x332329 (or (not ?U1) ?V1)))
(let (($x874111 (or (not ?W1) (and ?U1 ?X1 ?Y1))))
(let (($x381025 (or (not ?W1) ?X1)))
(let (($x114992 (and ?Z ?I2 (not ?E1) (<= ?B2 0.0) (>= ?B2 0.0) (<= ?C2 ?O) (>= ?C2 ?O) (<= ?D2 0.0) (>= ?D2 0.0))))
(let (($x621873 (>= ?C2 ?M1)))
(let (($x30142 (<= ?C2 ?M1)))
(let (($x411513 (>= ?B2 ?F1)))
(let (($x51152 (<= ?B2 ?F1)))
(let (($x151222 (and ?K1 ?H2 ?R1 $x51152 $x411513 $x30142 $x621873 (<= ?D2 ?B) (>= ?D2 ?B))))
(let (($x233302 (and ?U1 ?G2 (not ?Y1) $x51152 $x411513 $x30142 $x621873 (<= ?D2 0.0) (>= ?D2 0.0))))
(let (($x473361 (not ?Z1)))
(let (($x278039 (or $x473361 (and ?S1 ?A2 $x51152 $x411513 $x30142 $x621873 (<= ?D2 ?E2) (>= ?D2 ?E2)) (and ?W1 ?F2 $x51152 $x411513 $x30142 $x621873 (<= ?D2 ?B) (>= ?D2 ?B)) $x233302 $x151222 $x114992)))
(let (($x186580 (or $x473361 (and ?A2 (not ?F2) (not ?G2) (not ?H2) (not ?I2)) (and ?F2 (not ?A2) (not ?G2) (not ?H2) (not ?I2)) (and ?G2 (not ?A2) (not ?F2) (not ?H2) (not ?I2)) (and ?H2 (not ?A2) (not ?F2) (not ?G2) (not ?I2)) (and ?I2 (not ?A2) (not ?F2) (not ?G2) (not ?H2)))))
(let (($x27918 (= ?Z1 true)))
(let (($x353988 (= ?L (= ?K2 0.0))))
(let (($x16623 (= ?M2 (ite ?L2 1.0 0.0))))
(let (($x788317 (= ?T (= ?N2 0.0))))
(let (($x441350 (= ?X (ite ?O2 1.0 0.0))))
(let (($x192321 (= ?B1 (= ?P2 0.0))))
(let (($x841227 (= ?E1 (= ?Q2 0.0))))
(let (($x277254 (= ?R2 (not (<= ?O 0.0)))))
(let (($x308912 (= ?S2 (+ (~ 1.0) ?O))))
(let (($x102108 (= ?N1 (ite ?R2 ?S2 ?O))))
(let (($x238319 (= ?R1 (= ?F1 0.0))))
(let (($x361692 (= ?T2 (not (<= ?M1 1.0)))))
(let (($x366123 (= ?Y1 (= ?M1 0.0))))
(let (($x185077 (= ?U2 (= ?W 0.0))))
(let (($x582905 (= ?V2 (= ?C2 2.0))))
(let (($x512639 (= ?W2 (= ?D2 0.0))))
(let (($x884832 (= ?X2 (and ?V2 ?U2))))
(let (($x401398 (and (|cp-rel-bb1.i.i| ?A ?B ?C ?D) $x884832 $x512639 $x582905 $x185077 $x366123 (= ?E2 (ite ?T2 1.0 ?B)) $x361692 $x238319 $x102108 $x308912 $x277254 (= ?J1 (= ?B 0.0)) $x841227 $x192321 $x441350 (= ?O2 (= ?C 0.0)) $x788317 (= ?P (+ ?M2 ?D)) $x16623 (= ?L2 (not (<= 2.0 ?D))) $x353988 (>= ?H ?C2) (<= ?H ?C2) (>= ?G ?W) (<= ?G ?W) (>= ?F ?D2) (<= ?F ?D2) (>= ?E ?B2) (<= ?E ?B2) (not (= ?J2 true)) $x27918 $x186580 $x278039 $x381025 $x874111 $x332329 $x595798 $x842821 $x820023 $x251790 $x246929 $x466036 $x231094 $x445176 $x113697 $x206566 $x363903 $x361669 $x387165 $x195405 $x306100 $x154137 $x568670 $x546775 $x318008 $x104903 $x412307 $x870895)))
(=> $x401398 $x454028)))))))))))))))))))))))))))))))))))))))))))))))))))))))))))
)
(assert (forall ((?A Real) (?B Real) (?C Real) (?D Real) (?E Bool) (?F Bool) (?G Bool) (?H Bool) (?I Bool) (?J Bool) (?K Real) (?L Real) (?M Bool) (?N Bool) (?O Bool) (?P Bool) (?Q Bool) (?R Bool) (?S Real) (?T Real) (?U Bool) (?V Bool) (?W Bool) (?X Bool) (?Y Bool) (?Z Bool) (?A1 Bool) (?B1 Real) (?C1 Bool) (?D1 Bool) (?E1 Bool) (?F1 Bool) (?G1 Bool) (?H1 Bool) (?I1 Real) (?J1 Real) (?K1 Bool) (?L1 Bool) (?M1 Bool) (?N1 Bool) (?O1 Bool) (?P1 Bool) (?Q1 Bool) (?R1 Bool) (?S1 Bool) (?T1 Bool) (?U1 Bool) (?V1 Bool) (?W1 Bool) (?X1 Real) (?Y1 Real) (?Z1 Real) (?A2 Real) (?B2 Bool) (?C2 Bool) (?D2 Bool) (?E2 Bool) (?F2 Bool) (?G2 Real) (?H2 Bool) (?I2 Real) (?J2 Real) (?K2 Bool) (?L2 Real) (?M2 Real) (?N2 Bool) (?O2 Real) (?P2 Bool) (?Q2 Bool) (?R2 Bool) (?S2 Bool) (?T2 Bool) )(let (($x870895 (= ?F2 (and ?T2 ?S2))))
(let (($x412307 (or (not ?E) (and ?F ?G (not ?H)))))
(let (($x104903 (or (not ?E) ?G)))
(let (($x311655 (not ?I)))
(let (($x11304 (or $x311655 (and ?E ?J (<= ?K ?L) (>= ?K ?L)) (and ?F ?M ?H (<= ?K ?D) (>= ?K ?D)))))
(let (($x546775 (or $x311655 (and ?J (not ?M)) (and ?M (not ?J)))))
(let (($x568670 (or (not ?N) (and ?I ?O (not ?P)))))
(let (($x154137 (or (not ?N) ?O)))
(let (($x266353 (not ?Q)))
(let (($x396890 (or $x266353 (and ?N ?R (<= ?S ?T) (>= ?S ?T)) (and ?I ?U ?P (<= ?S ?C) (>= ?S ?C)))))
(let (($x195405 (or $x266353 (and ?R (not ?U)) (and ?U (not ?R)))))
(let (($x387165 (or (not ?V) (and ?Q ?W ?X))))
(let (($x361669 (or (not ?V) ?W)))
(let (($x536206 (not ?Y)))
(let (($x911165 (or $x536206 (and ?V ?Z ?A1 (<= ?B1 ?A) (>= ?B1 ?A)) (and ?Q ?C1 (not ?X) (<= ?B1 1.0) (>= ?B1 1.0)))))
(let (($x206566 (or $x536206 (and ?Z (not ?C1)) (and ?C1 (not ?Z)))))
(let (($x113697 (or (not ?D1) (and ?Y ?E1 (not ?F1)))))
(let (($x445176 (or (not ?D1) ?E1)))
(let (($x231094 (or (not ?G1) (and ?D1 ?H1 (<= ?I1 ?J1) (>= ?I1 ?J1)) (and ?Y ?K1 ?F1 (<= ?I1 ?K) (>= ?I1 ?K)))))
(let (($x466036 (or (not ?G1) (and ?H1 (not ?K1)) (and ?K1 (not ?H1)))))
(let (($x246929 (or (not ?L1) (and ?G1 ?M1 (not ?N1)))))
(let (($x251790 (or (not ?L1) ?M1)))
(let (($x820023 (or (not ?O1) (and ?L1 ?P1 ?F1))))
(let (($x842821 (or (not ?O1) ?P1)))
(let (($x595798 (or (not ?Q1) (and ?L1 ?R1 (not ?F1)))))
(let (($x332329 (or (not ?Q1) ?R1)))
(let (($x874111 (or (not ?S1) (and ?Q1 ?T1 ?U1))))
(let (($x381025 (or (not ?S1) ?T1)))
(let (($x114992 (and ?V ?E2 (not ?A1) (<= ?X1 0.0) (>= ?X1 0.0) (<= ?Y1 ?K) (>= ?Y1 ?K) (<= ?Z1 0.0) (>= ?Z1 0.0))))
(let (($x621873 (>= ?Y1 ?I1)))
(let (($x30142 (<= ?Y1 ?I1)))
(let (($x411513 (>= ?X1 ?B1)))
(let (($x51152 (<= ?X1 ?B1)))
(let (($x251421 (and ?G1 ?D2 ?N1 $x51152 $x411513 $x30142 $x621873 (<= ?Z1 ?B) (>= ?Z1 ?B))))
(let (($x233302 (and ?Q1 ?C2 (not ?U1) $x51152 $x411513 $x30142 $x621873 (<= ?Z1 0.0) (>= ?Z1 0.0))))
(let (($x473361 (not ?V1)))
(let (($x450950 (or $x473361 (and ?O1 ?W1 $x51152 $x411513 $x30142 $x621873 (<= ?Z1 ?A2) (>= ?Z1 ?A2)) (and ?S1 ?B2 $x51152 $x411513 $x30142 $x621873 (<= ?Z1 ?B) (>= ?Z1 ?B)) $x233302 $x251421 $x114992)))
(let (($x186580 (or $x473361 (and ?W1 (not ?B2) (not ?C2) (not ?D2) (not ?E2)) (and ?B2 (not ?W1) (not ?C2) (not ?D2) (not ?E2)) (and ?C2 (not ?W1) (not ?B2) (not ?D2) (not ?E2)) (and ?D2 (not ?W1) (not ?B2) (not ?C2) (not ?E2)) (and ?E2 (not ?W1) (not ?B2) (not ?C2) (not ?D2)))))
(let (($x27918 (= ?V1 true)))
(let (($x115687 (= ?F2 true)))
(let (($x353988 (= ?H (= ?G2 0.0))))
(let (($x16623 (= ?I2 (ite ?H2 1.0 0.0))))
(let (($x788317 (= ?P (= ?J2 0.0))))
(let (($x441350 (= ?T (ite ?K2 1.0 0.0))))
(let (($x192321 (= ?X (= ?L2 0.0))))
(let (($x841227 (= ?A1 (= ?M2 0.0))))
(let (($x277254 (= ?N2 (not (<= ?K 0.0)))))
(let (($x308912 (= ?O2 (+ (~ 1.0) ?K))))
(let (($x102108 (= ?J1 (ite ?N2 ?O2 ?K))))
(let (($x238319 (= ?N1 (= ?B1 0.0))))
(let (($x361692 (= ?P2 (not (<= ?I1 1.0)))))
(let (($x366123 (= ?U1 (= ?I1 0.0))))
(let (($x185077 (= ?Q2 (= ?S 0.0))))
(let (($x582905 (= ?R2 (= ?Y1 2.0))))
(let (($x512639 (= ?S2 (= ?Z1 0.0))))
(let (($x884832 (= ?T2 (and ?R2 ?Q2))))
(let (($x454028 (|cp-rel-bb1.i.i| ?A ?B ?C ?D)))
(let (($x64004 (and $x454028 $x884832 $x512639 $x582905 $x185077 $x366123 (= ?A2 (ite ?P2 1.0 ?B)) $x361692 $x238319 $x102108 $x308912 $x277254 (= ?F1 (= ?B 0.0)) $x841227 $x192321 $x441350 (= ?K2 (= ?C 0.0)) $x788317 (= ?L (+ ?I2 ?D)) $x16623 (= ?H2 (not (<= 2.0 ?D))) $x353988 $x115687 $x27918 $x186580 $x450950 $x381025 $x874111 $x332329 $x595798 $x842821 $x820023 $x251790 $x246929 $x466036 $x231094 $x445176 $x113697 $x206566 $x911165 $x361669 $x387165 $x195405 $x396890 $x154137 $x568670 $x546775 $x11304 $x104903 $x412307 $x870895)))
(=> $x64004 |cp-rel-bb2.i.i26.i.i|))))))))))))))))))))))))))))))))))))))))))))))))))))))))))))
)
(assert (not cp-rel-bb2.i.i26.i.i))
(check-sat)
